Version identifier: 22.1.0.0 | 2022-03-09 | 1a383f8ce
CPXPARAM_Read_DataCheck                          1
CPXPARAM_TimeLimit                               600
Tried aggregator 3 times.
MIP Presolve eliminated 191318 rows and 13071 columns.
MIP Presolve modified 1801 coefficients.
Aggregator did 180560 substitutions.
Reduced MIP has 15170 rows, 184513 columns, and 384545 nonzeros.
Reduced MIP has 184465 binaries, 48 generals, 0 SOSs, and 0 indicators.
Presolve time = 2.82 sec. (2701.47 ticks)
Tried aggregator 1 time.
Detecting symmetries...
Reduced MIP has 15170 rows, 184513 columns, and 384545 nonzeros.
Reduced MIP has 184465 binaries, 48 generals, 0 SOSs, and 0 indicators.
Presolve time = 0.58 sec. (300.36 ticks)
Probing fixed 72 vars, tightened 0 bounds.
Probing changed sense of 17 constraints.
Probing time = 0.44 sec. (52.56 ticks)
Clique table members: 372863.
MIP emphasis: balance optimality and feasibility.
MIP search method: dynamic search.
Parallel mode: deterministic, using up to 8 threads.
Root relaxation solution time = 3.43 sec. (1324.39 ticks)

        Nodes                                         Cuts/
   Node  Left     Objective  IInf  Best Integer    Best Bound    ItCnt     Gap

      0     0       48.3846 11048                     48.3846       27         
      0     0       77.0000  1212                   Fract: 29    24918         
      0     0       77.0000  1306                   Cuts: 103    46297         
      0     0       77.0000   793                ZeroHalf: 47    66624         
      0     0       77.0000  1202                ZeroHalf: 78    88632         

Zero-half cuts applied:  130
Lift and project cuts applied:  2
Gomory fractional cuts applied:  32

Root node processing (before b&c):
  Real time             =  600.09 sec. (243790.57 ticks)
Parallel b&c, 8 threads:
  Real time             =    0.00 sec. (0.00 ticks)
  Sync time (average)   =    0.00 sec.
  Wait time (average)   =    0.00 sec.
                          ------------
Total (root+branch&cut) =  600.09 sec. (243790.57 ticks)
